words_hard_train/4098.qaiger
aag 129 23 0 1 106
2
4
8
10
16
26
36
46
56
66
68
88
90
114
116
140
142
166
168
202
204
226
228
259
6 2 5
12 9 11
14 6 12
18 14 17
20 3 5
22 20 9
24 22 11
28 25 26
30 24 27
32 29 31
34 18 32
38 34 37
40 30 17
42 40 37
44 39 43
48 45 46
50 44 47
52 49 51
54 53 38
58 57 3
60 59 4
62 61 21
64 20 56
70 67 69
72 66 68
74 71 73
76 65 75
78 63 77
80 21 8
82 81 23
84 78 83
86 79 82
92 89 91
94 88 90
96 93 95
98 73 97
100 72 96
102 99 101
104 87 102
106 85 105
108 23 10
110 109 25
112 101 95
118 115 117
120 114 116
122 119 121
124 112 123
126 113 122
128 125 127
130 110 129
132 107 131
134 111 128
136 133 135
138 127 121
144 141 143
146 140 142
148 145 147
150 138 149
152 139 148
154 151 153
156 154 33
158 136 157
160 155 32
162 159 161
164 153 147
170 167 169
172 166 168
174 171 173
176 164 175
178 165 174
180 177 179
182 31 16
184 183 41
186 180 185
188 163 187
190 181 184
192 189 191
194 42 35
196 41 36
198 195 197
200 179 173
206 203 205
208 202 204
210 207 209
212 200 211
214 201 210
216 213 215
218 198 217
220 192 219
222 199 216
224 221 223
230 226 228
232 227 229
234 231 233
236 215 209
238 235 237
240 234 236
242 239 241
244 225 242
246 54 244
248 55 245
250 52 39
252 224 243
254 251 253
256 248 255
258 247 257
i0 1 x1[0]
i1 1 x1[1]
i2 1 x1[2]
i3 1 x1[3]
i4 1 x1[5]
i5 1 x1[4]
i6 1 x1[6]
i7 1 x1[7]
i8 1 x2[0]
i9 1 x2[1]
i10 2 y1[0]
i11 1 x2[2]
i12 2 y1[1]
i13 1 x2[3]
i14 2 y1[2]
i15 1 x2[4]
i16 2 y1[3]
i17 1 x2[5]
i18 2 y1[4]
i19 1 x2[6]
i20 2 y1[5]
i21 1 x2[7]
i22 2 y1[6]
o0 bv[0]
c
simplified
  >
    subtract
      1
      1 x1
    add
      1 x2
      << 1
        2 y1
