words_hard_train/4098.qaiger.qdimacs
p cnf 129 319
a 1 2 33 4 5 70 101 8 44 13 113 18 83 23 57 28 0
e 3 6 7 9 10 11 12 14 15 16 17 19 20 21 22 24 25 26 27 29 30 31 32 34 35 36 37 38 39 40 41 42 43 45 46 47 48 49 50 51 52 53 54 55 56 58 59 60 61 62 63 64 65 66 67 68 69 71 72 73 74 75 76 77 78 79 80 81 82 84 85 86 87 88 89 90 91 92 93 94 95 96 97 98 99 100 102 103 104 105 106 107 108 109 110 111 112 114 115 116 117 118 119 120 121 122 123 124 125 126 127 128 129 0
-1 2 3 0
1 -3 0
-2 -3 0
4 5 6 0
-4 -6 0
-5 -6 0
-3 -6 7 0
3 -7 0
6 -7 0
-7 8 9 0
7 -9 0
-8 -9 0
1 2 10 0
-1 -10 0
-2 -10 0
-10 4 11 0
10 -11 0
-4 -11 0
-11 5 12 0
11 -12 0
-5 -12 0
12 -13 14 0
-12 -14 0
13 -14 0
-12 13 15 0
12 -15 0
-13 -15 0
14 15 16 0
-14 -16 0
-15 -16 0
-9 -16 17 0
9 -17 0
16 -17 0
-17 18 19 0
17 -19 0
-18 -19 0
-15 8 20 0
15 -20 0
-8 -20 0
-20 18 21 0
20 -21 0
-18 -21 0
19 21 22 0
-19 -22 0
-21 -22 0
22 -23 24 0
-22 -24 0
23 -24 0
-22 23 25 0
22 -25 0
-23 -25 0
24 25 26 0
-24 -26 0
-25 -26 0
26 -19 27 0
-26 -27 0
19 -27 0
28 1 29 0
-28 -29 0
-1 -29 0
29 -2 30 0
-29 -30 0
2 -30 0
30 10 31 0
-30 -31 0
-10 -31 0
-10 -28 32 0
10 -32 0
28 -32 0
33 34 35 0
-33 -35 0
-34 -35 0
-33 -34 36 0
33 -36 0
34 -36 0
35 36 37 0
-35 -37 0
-36 -37 0
32 37 38 0
-32 -38 0
-37 -38 0
31 38 39 0
-31 -39 0
-38 -39 0
10 -4 40 0
-10 -40 0
4 -40 0
40 11 41 0
-40 -41 0
-11 -41 0
-39 41 42 0
39 -42 0
-41 -42 0
39 -41 43 0
-39 -43 0
41 -43 0
44 45 46 0
-44 -46 0
-45 -46 0
-44 -45 47 0
44 -47 0
45 -47 0
46 47 48 0
-46 -48 0
-47 -48 0
36 48 49 0
-36 -49 0
-48 -49 0
-36 -48 50 0
36 -50 0
48 -50 0
49 50 51 0
-49 -51 0
-50 -51 0
43 -51 52 0
-43 -52 0
51 -52 0
42 52 53 0
-42 -53 0
-52 -53 0
11 -5 54 0
-11 -54 0
5 -54 0
54 12 55 0
-54 -55 0
-12 -55 0
50 47 56 0
-50 -56 0
-47 -56 0
57 58 59 0
-57 -59 0
-58 -59 0
-57 -58 60 0
57 -60 0
58 -60 0
59 60 61 0
-59 -61 0
-60 -61 0
-56 61 62 0
56 -62 0
-61 -62 0
56 -61 63 0
-56 -63 0
61 -63 0
62 63 64 0
-62 -64 0
-63 -64 0
-55 64 65 0
55 -65 0
-64 -65 0
53 65 66 0
-53 -66 0
-65 -66 0
55 -64 67 0
-55 -67 0
64 -67 0
66 67 68 0
-66 -68 0
-67 -68 0
63 60 69 0
-63 -69 0
-60 -69 0
70 71 72 0
-70 -72 0
-71 -72 0
-70 -71 73 0
70 -73 0
71 -73 0
72 73 74 0
-72 -74 0
-73 -74 0
-69 74 75 0
69 -75 0
-74 -75 0
69 -74 76 0
-69 -76 0
74 -76 0
75 76 77 0
-75 -77 0
-76 -77 0
-77 16 78 0
77 -78 0
-16 -78 0
-68 78 79 0
68 -79 0
-78 -79 0
77 -16 80 0
-77 -80 0
16 -80 0
79 80 81 0
-79 -81 0
-80 -81 0
76 73 82 0
-76 -82 0
-73 -82 0
83 84 85 0
-83 -85 0
-84 -85 0
-83 -84 86 0
83 -86 0
84 -86 0
85 86 87 0
-85 -87 0
-86 -87 0
-82 87 88 0
82 -88 0
-87 -88 0
82 -87 89 0
-82 -89 0
87 -89 0
88 89 90 0
-88 -90 0
-89 -90 0
15 -8 91 0
-15 -91 0
8 -91 0
91 20 92 0
-91 -92 0
-20 -92 0
-90 92 93 0
90 -93 0
-92 -93 0
81 93 94 0
-81 -94 0
-93 -94 0
90 -92 95 0
-90 -95 0
92 -95 0
94 95 96 0
-94 -96 0
-95 -96 0
-21 17 97 0
21 -97 0
-17 -97 0
20 -18 98 0
-20 -98 0
18 -98 0
97 98 99 0
-97 -99 0
-98 -99 0
89 86 100 0
-89 -100 0
-86 -100 0
101 102 103 0
-101 -103 0
-102 -103 0
-101 -102 104 0
101 -104 0
102 -104 0
103 104 105 0
-103 -105 0
-104 -105 0
-100 105 106 0
100 -106 0
-105 -106 0
100 -105 107 0
-100 -107 0
105 -107 0
106 107 108 0
-106 -108 0
-107 -108 0
-99 108 109 0
99 -109 0
-108 -109 0
-96 109 110 0
96 -110 0
-109 -110 0
99 -108 111 0
-99 -111 0
108 -111 0
110 111 112 0
-110 -112 0
-111 -112 0
-113 -114 115 0
113 -115 0
114 -115 0
113 114 116 0
-113 -116 0
-114 -116 0
115 116 117 0
-115 -117 0
-116 -117 0
107 104 118 0
-107 -118 0
-104 -118 0
117 118 119 0
-117 -119 0
-118 -119 0
-117 -118 120 0
117 -120 0
118 -120 0
119 120 121 0
-119 -121 0
-120 -121 0
112 -121 122 0
-112 -122 0
121 -122 0
-27 -122 123 0
27 -123 0
122 -123 0
27 122 124 0
-27 -124 0
-122 -124 0
-26 19 125 0
26 -125 0
-19 -125 0
-112 121 126 0
112 -126 0
-121 -126 0
125 126 127 0
-125 -127 0
-126 -127 0
-124 127 128 0
124 -128 0
-127 -128 0
123 128 129 0
-123 -129 0
-128 -129 0
-129 0
